1039186
21,20,77,93,63,36,97,35,42,2,27,64,5,3,85,89,8,53,91,44,72,55,99,80,38,76,87,45,86,39,73,84,22,19,79,12,26,17,40,51,94,29,78,25,95,47,57,33,9,32,74,37,48,70,1,4,66,7,81,14,92,52,98,54,65,43,24,59,90,71,34,11,23,28,46,67,58,61,82,16,15,83,50,88,68,13,60,31,62,49,69,75,6,41,18,30,96,56,10